p cnf 1934 3126
-24 0
-25 0
27 0
-35 0
-37 0
-38 0
-39 0
-41 0
-42 0
-43 0
-44 0
-45 0
-46 0
-58 0
-59 0
-60 0
-61 0
-92 0
-93 0
-103 0
-104 0
-105 0
-107 0
-115 0
-116 0
-117 0
-118 0
-119 0
-125 0
-132 0
-137 0
-138 0
-149 0
-151 0
-154 0
-155 0
-156 0
-157 0
-159 0
-160 0
-161 0
-164 0
-165 0
-166 0
-167 0
-168 0
-169 0
-188 0
-189 0
-190 0
-191 0
-192 0
-193 0
-194 0
-195 0
-196 0
-197 0
-198 0
-199 0
-200 0
-201 0
-218 0
-219 0
-221 0
-222 0
-223 0
-224 0
-225 0
-226 0
231 0
-232 0
-233 0
-234 0
-235 0
-241 0
-247 0
-258 0
-263 0
274 0
-275 0
-287 0
-288 0
-289 0
-303 0
-304 0
-307 0
-308 0
-309 0
-310 0
-311 0
-312 0
-313 0
-314 0
-315 0
-316 0
-317 0
-318 0
-319 0
-320 0
-321 0
-324 0
-325 0
-326 0
-327 0
-328 0
-329 0
-330 0
-331 0
-332 0
-333 0
-334 0
-335 0
-336 0
-337 0
-338 0
-339 0
-340 0
-341 0
-342 0
-343 0
-344 0
-345 0
-346 0
-347 0
-348 0
-349 0
-350 0
-351 0
-352 0
-360 0
-371 0
-383 0
-384 0
-385 0
-386 0
-387 0
-388 0
-389 0
-390 0
-393 0
-395 0
-398 0
-399 0
-401 0
-404 0
-411 0
-416 0
-417 0
-419 0
-421 0
-422 0
-425 0
-426 0
-434 0
-436 0
-438 0
-439 0
-440 0
-441 0
-442 0
-445 0
462 0
-463 0
-464 0
-465 0
-466 0
-467 0
-468 0
-469 0
471 0
-472 0
473 0
-513 0
-514 0
-515 0
-516 0
-517 0
-518 0
-519 0
-520 0
-521 0
-522 0
-523 0
-524 0
-525 0
-526 0
-527 0
-528 0
-529 0
-530 0
-531 0
-532 0
-533 0
-534 0
-535 0
-536 0
-537 0
-538 0
-539 0
-540 0
-541 0
-542 0
-543 0
-544 0
-545 0
-546 0
597 0
598 0
-600 0
-816 0
-828 0
-866 0
-867 0
-868 0
-869 0
-870 0
-871 0
-872 0
-873 0
-874 0
-875 0
-876 0
-877 0
-878 0
-879 0
-880 0
-881 0
-882 0
-883 0
-884 0
-885 0
-886 0
-887 0
-888 0
-889 0
-890 0
-891 0
-892 0
-893 0
-894 0
-895 0
-896 0
-897 0
-898 0
-899 0
-900 0
-901 0
-902 0
-903 0
-904 0
-905 0
-906 0
-907 0
-908 0
-909 0
-910 0
-911 0
-912 0
-913 0
-914 0
-915 0
-916 0
-917 0
-918 0
-919 0
-920 0
-921 0
-922 0
-923 0
-924 0
-925 0
-926 0
-927 0
-928 0
-929 0
-930 0
-931 0
-932 0
-933 0
-934 0
-935 0
-936 0
-937 0
-938 0
-939 0
-940 0
-941 0
-942 0
-943 0
-944 0
-945 0
-946 0
-947 0
-948 0
-949 0
-950 0
-951 0
-952 0
-953 0
-954 0
-955 0
-956 0
-957 0
-958 0
-959 0
-960 0
-961 0
-962 0
-963 0
-964 0
-965 0
-966 0
-967 0
-968 0
-969 0
-970 0
-971 0
-972 0
-973 0
-974 0
-975 0
-976 0
-977 0
-978 0
-979 0
-980 0
-981 0
-982 0
-983 0
-984 0
-985 0
-986 0
-987 0
-988 0
-989 0
-990 0
-991 0
-992 0
-993 0
-994 0
-995 0
-996 0
-997 0
-998 0
-999 0
-1000 0
-1001 0
-1002 0
-1003 0
-1004 0
-1005 0
-1006 0
-1007 0
-1008 0
-1009 0
-1010 0
-1011 0
-1012 0
-1013 0
-1014 0
-1015 0
-1016 0
-1017 0
-1018 0
-1019 0
-1020 0
-1021 0
-1022 0
-1023 0
-1024 0
-1025 0
-1026 0
-1027 0
-1028 0
-1029 0
-1030 0
-1031 0
-1032 0
-1033 0
-1034 0
-1035 0
-1036 0
-1037 0
-1038 0
-1039 0
-1040 0
-1041 0
-1042 0
-1043 0
-1044 0
-1045 0
-1046 0
-1047 0
-1048 0
-1049 0
-1050 0
-1051 0
-1052 0
-1053 0
-1054 0
-1055 0
-1056 0
-1057 0
-1058 0
-1059 0
-1060 0
-1061 0
-1062 0
-1063 0
-1064 0
-1065 0
-1066 0
-1067 0
-1068 0
-1069 0
-1070 0
-1071 0
-1072 0
-1073 0
-1074 0
-1075 0
-1076 0
-1077 0
-1078 0
-1079 0
-1080 0
-1081 0
-1082 0
-1083 0
-1084 0
-1085 0
-1086 0
-1087 0
-1088 0
-1089 0
-1090 0
-1091 0
-1092 0
-1093 0
-1094 0
-1095 0
-1096 0
-1097 0
-1098 0
-1099 0
-1100 0
-1101 0
-1102 0
-1103 0
-1104 0
-1105 0
-1106 0
-1107 0
-1108 0
-1109 0
-1110 0
-1111 0
-1112 0
-1113 0
-1114 0
-1115 0
-1116 0
-1117 0
-1118 0
-1119 0
-1120 0
-1121 0
-1122 0
-1123 0
-1124 0
-1125 0
-1126 0
-1127 0
-1128 0
-1129 0
-1130 0
-1131 0
-1132 0
-1133 0
-1134 0
-1135 0
-1136 0
-1137 0
-1138 0
-1139 0
-1140 0
-1141 0
-1142 0
-1143 0
-1144 0
-1145 0
-1146 0
-1147 0
-1148 0
-1149 0
-1150 0
-1151 0
-1152 0
-1153 0
-1154 0
-1155 0
-1156 0
-1157 0
-1158 0
-1159 0
-1160 0
-1161 0
-1162 0
-1163 0
-1164 0
-1165 0
-1166 0
-1167 0
-1168 0
-1169 0
-1170 0
-1171 0
-1172 0
-1173 0
-1174 0
-1175 0
-1176 0
-1177 0
-1178 0
-1179 0
-1180 0
-1181 0
-1182 0
-1183 0
-1184 0
-1185 0
-1186 0
-1187 0
-1188 0
-1189 0
-1190 0
-1191 0
-1192 0
-1193 0
-1194 0
-1195 0
-1196 0
-1197 0
-1198 0
-1199 0
-1200 0
-1201 0
-1202 0
-1203 0
-1204 0
-1205 0
-1206 0
-1207 0
-1208 0
-1209 0
-1210 0
-1211 0
-1212 0
-1213 0
-1214 0
-1215 0
-1216 0
-1217 0
-1218 0
-1219 0
-1220 0
-1221 0
-1222 0
-1223 0
-1224 0
-1225 0
-1226 0
-1227 0
-1228 0
-1229 0
-1230 0
-1231 0
-1232 0
-1233 0
-1234 0
-1235 0
-1236 0
-1237 0
-1238 0
-1239 0
-1240 0
-1241 0
-1242 0
-1243 0
-1244 0
-1245 0
-1246 0
-1247 0
-1248 0
-1249 0
-1250 0
-1251 0
-1252 0
-1253 0
-1254 0
-1255 0
-1256 0
-1257 0
-1258 0
-1259 0
-1260 0
-1261 0
-1262 0
-1263 0
-1264 0
-1265 0
-1266 0
-1267 0
-1268 0
-1269 0
-1270 0
-1271 0
-1272 0
-1273 0
-1274 0
-1275 0
-1276 0
-1277 0
-1278 0
-1279 0
-1280 0
-1281 0
-1282 0
-1283 0
-1284 0
-1285 0
-1286 0
-1287 0
-1288 0
-1289 0
-1290 0
-1291 0
-1292 0
-1293 0
-1294 0
-1295 0
-1296 0
-1297 0
-1298 0
-1299 0
-1300 0
-1301 0
-1302 0
-1303 0
-1304 0
-1305 0
-1306 0
-1307 0
-1308 0
-1309 0
-1310 0
-1311 0
-1312 0
-1313 0
-1314 0
-1315 0
-1316 0
-1317 0
-1318 0
-1319 0
-1320 0
-1321 0
-1322 0
-1323 0
-1324 0
-1325 0
-1326 0
-1327 0
-1328 0
-1329 0
-1330 0
-1331 0
-1332 0
-1333 0
-1334 0
-1335 0
-1336 0
-1337 0
-1338 0
-1339 0
-1340 0
-1341 0
-1342 0
-1343 0
-1344 0
-1345 0
-1346 0
-1347 0
-1348 0
-1349 0
-1350 0
-1351 0
-1352 0
-1353 0
-1354 0
-1355 0
-1356 0
-1357 0
-1358 0
-1359 0
-1360 0
-1361 0
-1362 0
-1363 0
-1364 0
-1365 0
-1366 0
-1367 0
-1368 0
-1369 0
-1370 0
-1371 0
-1372 0
-1373 0
-1374 0
-1375 0
-1376 0
-1377 0
-1378 0
-1379 0
-1380 0
-1381 0
-1382 0
-1383 0
-1384 0
-1385 0
-1386 0
-1387 0
-1388 0
-1389 0
-1390 0
-1391 0
-1392 0
-1393 0
-1394 0
-1395 0
-1396 0
-1397 0
-1398 0
-1399 0
-1400 0
-1401 0
-1402 0
-1403 0
-1404 0
-1405 0
-1406 0
-1407 0
-1408 0
-1409 0
-1410 0
-1411 0
-1412 0
-1413 0
-1414 0
-1415 0
-1416 0
-1417 0
-1418 0
-1419 0
-1420 0
-1421 0
-1422 0
-1423 0
-1424 0
-1425 0
-1426 0
-1427 0
-1428 0
-1429 0
-1430 0
-1431 0
-1432 0
-1433 0
-1434 0
-1435 0
-1436 0
-1437 0
-1438 0
-1439 0
-1440 0
-1441 0
-1442 0
-1443 0
-1444 0
-1445 0
-1446 0
-1447 0
-1448 0
-1449 0
-1450 0
-1451 0
-1452 0
-1453 0
-1454 0
-1455 0
-1456 0
-1457 0
-1458 0
-1459 0
-1460 0
-1461 0
-1462 0
-1463 0
-1464 0
-1465 0
-1466 0
-1467 0
-1468 0
-1469 0
-1470 0
-1471 0
-1472 0
-1473 0
-1474 0
-1475 0
-1476 0
-1477 0
-1478 0
-1479 0
-1480 0
-1481 0
-1482 0
-1483 0
-1484 0
-1485 0
-1486 0
-1487 0
-1488 0
-1489 0
-1490 0
-1491 0
-1492 0
-1493 0
-1494 0
-1495 0
-1496 0
-1497 0
-1498 0
-1499 0
-1500 0
-1501 0
-1502 0
-1503 0
-1504 0
-1505 0
-1506 0
-1507 0
-1508 0
-1509 0
-1510 0
-1511 0
-1512 0
-1513 0
-1514 0
-1515 0
-1516 0
-1517 0
-1518 0
-1519 0
-1520 0
-1521 0
-1522 0
-1523 0
-1524 0
-1525 0
-1526 0
-1527 0
-1528 0
-1529 0
-1530 0
-1531 0
-1532 0
-1533 0
-1534 0
-1535 0
-1536 0
-1537 0
-1538 0
-1539 0
-1540 0
-1541 0
-1542 0
-1543 0
-1544 0
-1545 0
-1546 0
-1547 0
-1548 0
-1549 0
-1550 0
-1551 0
-1552 0
-1553 0
-1554 0
-1555 0
-1556 0
-1557 0
-1558 0
-1559 0
-1560 0
-1561 0
-1562 0
-1563 0
-1564 0
-1565 0
-1566 0
-1567 0
-1568 0
-1569 0
-1570 0
-1571 0
-1572 0
-1573 0
-1574 0
-1575 0
-1576 0
-1577 0
-1578 0
-1579 0
-1580 0
-1581 0
-1582 0
-1583 0
-1584 0
-1585 0
-1586 0
-1587 0
-1588 0
-1589 0
-1590 0
-1591 0
-1592 0
-1593 0
-1594 0
-1595 0
-1596 0
-1597 0
-1598 0
-1599 0
-1600 0
-1601 0
-1602 0
-1603 0
-1604 0
-1605 0
-1606 0
-1607 0
-1608 0
-1609 0
-1610 0
-1611 0
-1612 0
-1613 0
-1614 0
-1615 0
-1616 0
-1617 0
-1618 0
-1619 0
-1620 0
-1621 0
-1622 0
-1623 0
-1624 0
-1625 0
-1626 0
-1627 0
-1628 0
-1629 0
-1630 0
-1631 0
-1632 0
-1633 0
-1634 0
-1635 0
-1636 0
-1637 0
-1638 0
-1639 0
-1640 0
-1641 0
-1642 0
-1643 0
-1644 0
-1645 0
-1646 0
-1647 0
-1648 0
-1649 0
-1650 0
-1651 0
-1652 0
-1653 0
-1654 0
-1655 0
-1656 0
-1657 0
-1658 0
-1659 0
-1660 0
-1661 0
-1662 0
-1663 0
-1664 0
-1665 0
-1666 0
-1667 0
-1668 0
-1669 0
-1670 0
-1671 0
-1672 0
-1673 0
-1674 0
-1675 0
-1676 0
-1677 0
-1678 0
-1679 0
-1680 0
-1681 0
-1682 0
-1683 0
-1684 0
-1685 0
-1686 0
-1687 0
-1688 0
-1689 0
-1690 0
-1691 0
-1692 0
-1693 0
-1694 0
-1695 0
-1696 0
-1697 0
-1698 0
-1699 0
-1700 0
-1701 0
-1702 0
-1703 0
-1704 0
-1705 0
-1706 0
-1707 0
-1708 0
-1709 0
-1710 0
-1711 0
-1712 0
-1713 0
-1714 0
-1715 0
-1716 0
-1717 0
-1718 0
-1719 0
-1720 0
-1721 0
-1722 0
-1723 0
-1724 0
-1725 0
-1726 0
-1727 0
-1728 0
-1729 0
-1730 0
-1731 0
-1732 0
-1733 0
-1734 0
-1735 0
-1736 0
-1737 0
-1738 0
-1739 0
-1740 0
-1741 0
-1742 0
-1743 0
-1744 0
-1745 0
-1746 0
-1747 0
-1748 0
-1749 0
-1750 0
-1751 0
-1752 0
-1753 0
-1754 0
-1755 0
-1756 0
-1757 0
-1758 0
-1759 0
-1760 0
-1761 0
-1762 0
-1763 0
-1764 0
-1765 0
-1766 0
-1767 0
-1768 0
-1769 0
-1770 0
-1771 0
-1772 0
-1773 0
-1774 0
-1775 0
-1776 0
-1777 0
-1778 0
-1779 0
-1780 0
-1781 0
-1782 0
-1783 0
-1784 0
-1785 0
-1786 0
-1787 0
-1788 0
-1789 0
-1790 0
-1791 0
-1792 0
-1793 0
-1794 0
-1795 0
-1796 0
-1797 0
-1798 0
-1799 0
-1800 0
-1801 0
-1802 0
-1803 0
-1804 0
-1805 0
-1806 0
-1807 0
-1808 0
-1809 0
-1810 0
-1811 0
-1812 0
-1813 0
-1814 0
-1815 0
-1816 0
-1817 0
-1818 0
-1819 0
-1820 0
-1821 0
-1822 0
-1823 0
-1824 0
-1825 0
-1826 0
-1827 0
-1828 0
-1829 0
-1830 0
-1831 0
-1832 0
-1833 0
-1834 0
-1835 0
-1836 0
-1837 0
-1838 0
-1839 0
-1840 0
-1841 0
-1842 0
-1843 0
-1844 0
-1845 0
-1846 0
-1847 0
-1848 0
-1849 0
-1850 0
-1851 0
-1852 0
-1853 0
-1854 0
-1855 0
-1856 0
-1857 0
-1858 0
-1859 0
-1860 0
-1861 0
-1862 0
-1863 0
-1864 0
-1865 0
-1866 0
-1867 0
-1868 0
-1869 0
-1870 0
-1871 0
-1872 0
-1873 0
-1874 0
-1875 0
-1876 0
-1877 0
-1878 0
-1879 0
-1880 0
-1881 0
-1882 0
-1883 0
-1884 0
-1885 0
-1886 0
-1887 0
-1888 0
-1889 0
-1890 0
-1891 0
-1892 0
-1893 0
-1894 0
-1895 0
-1896 0
-1897 0
-1898 0
-1899 0
-1900 0
-1901 0
-1902 0
-1903 0
-1904 0
-1905 0
-1906 0
-1907 0
-1908 0
-1909 0
-1910 0
-1911 0
-1912 0
-1913 0
-1914 0
-1915 0
-1916 0
-1917 0
-1918 0
-1919 0
-1920 0
-1921 0
-1922 0
-1923 0
-1924 0
-1925 0
-1926 0
-1927 0
-1928 0
-1929 0
-1930 0
-1931 0
-1932 0
-1933 0
-1934 0
-23 26 0
-23 28 0
-33 -32 -31 0
-34 -31 0
-36 -31 0
-40 -31 0
-47 -32 31 0
-47 -34 0
-47 32 0
-48 -32 31 0
-48 -34 0
-48 32 0
-49 -32 31 0
-49 -34 0
-49 32 0
-56 -55 0
-56 -55 0
-36 -31 0
-40 -36 0
-62 36 0
-63 36 0
-63 33 0
-64 36 0
-65 36 0
-66 36 0
-75 -74 0
-76 -74 0
-77 -74 0
-78 -74 0
-79 -74 0
-80 -74 0
-81 -75 0
-81 -76 0
-81 -77 0
-81 -78 0
-81 -79 0
-81 -80 0
-75 -74 0
-81 -75 0
-82 -75 0
-83 -75 0
-84 -75 0
-85 -75 0
-86 -75 0
-87 -75 0
-88 -75 0
-89 -75 0
-90 -75 0
-91 -75 0
-82 -75 0
-82 -76 0
-82 -77 0
-82 -78 0
-82 -79 0
-82 -80 0
-83 -75 0
-83 -76 0
-83 -77 0
-83 -78 0
-83 -79 0
-83 -80 0
-84 -75 0
-84 -76 0
-84 -77 0
-84 -78 0
-84 -79 0
-84 -80 0
-76 -74 0
-81 -76 0
-82 -76 0
-83 -76 0
-84 -76 0
-85 -76 0
-86 -76 0
-87 -76 0
-88 -76 0
-89 -76 0
-90 -76 0
-91 -76 0
-85 -75 0
-85 -76 0
-85 -77 0
-85 -78 0
-85 -79 0
-85 -80 0
-77 -74 0
-81 -77 0
-82 -77 0
-83 -77 0
-84 -77 0
-85 -77 0
-86 -77 0
-87 -77 0
-88 -77 0
-89 -77 0
-90 -77 0
-91 -77 0
-94 -75 0
-94 -76 0
-94 -77 0
-94 -78 0
-94 -79 0
-94 -80 0
-78 -74 0
-81 -78 0
-82 -78 0
-83 -78 0
-84 -78 0
-85 -78 0
-86 -78 0
-87 -78 0
-88 -78 0
-89 -78 0
-90 -78 0
-91 -78 0
-86 -75 0
-86 -76 0
-86 -77 0
-86 -78 0
-86 -79 0
-86 -80 0
-79 -74 0
-81 -79 0
-82 -79 0
-83 -79 0
-84 -79 0
-85 -79 0
-86 -79 0
-87 -79 0
-88 -79 0
-89 -79 0
-90 -79 0
-91 -79 0
-87 -75 0
-87 -76 0
-87 -77 0
-87 -78 0
-87 -79 0
-87 -80 0
-80 -74 0
-81 -80 0
-82 -80 0
-83 -80 0
-84 -80 0
-85 -80 0
-86 -80 0
-87 -80 0
-88 -80 0
-89 -80 0
-90 -80 0
-91 -80 0
-88 -75 0
-88 -76 0
-88 -77 0
-88 -78 0
-88 -79 0
-88 -80 0
-89 -75 0
-89 -76 0
-89 -77 0
-89 -78 0
-89 -79 0
-89 -80 0
-90 -75 0
-90 -76 0
-90 -77 0
-90 -78 0
-90 -79 0
-90 -80 0
-91 -75 0
-91 -76 0
-91 -77 0
-91 -78 0
-91 -79 0
-91 -80 0
-112 -32 113 0
-114 -112 -32 0
-112 -34 0
-112 32 0
-121 122 123 124 0
-134 -32 135 0
-136 -134 -32 0
-134 -34 0
-134 32 0
-135 -34 0
-135 32 0
-114 -112 0
-152 -114 0
-153 -114 0
-158 -33 -32 0
-158 -34 0
-158 32 0
-170 122 171 172 173 174 175 176 177 178 179 180 181 182 183 184 185 186 187 0
-215 216 0
26 152 153 0
-40 33 0
-40 -31 0
-40 -36 0
-227 40 0
-228 40 0
-229 40 0
-230 40 0
-171 216 0
-172 216 0
-245 216 0
-245 131 0
-248 249 0
-173 216 0
-174 216 0
-252 216 0
-253 216 0
-175 216 0
-176 216 0
-254 216 0
-255 131 0
-255 216 0
-257 -32 33 0
-177 216 0
-259 216 0
-178 216 0
-264 216 0
-179 216 0
-180 216 0
-181 26 150 152 153 0
-181 216 0
-266 -181 0
-182 216 0
-269 216 0
-270 216 0
-271 216 0
-183 216 0
-184 216 0
-185 216 0
-186 216 0
-282 283 284 0
-285 -32 33 0
-286 -32 281 0
-286 -34 0
-286 32 0
-286 -254 0
-290 -286 0
-291 -286 0
-292 -286 0
-293 -286 0
-294 -286 0
-295 -286 0
-296 -286 0
-297 -286 0
-298 -286 0
-300 216 0
-305 216 0
-322 216 0
-291 249 0
-354 -179 0
-359 -32 216 0
-359 -34 0
-359 32 0
-361 216 0
-362 -26 363 0
-362 364 0
-365 354 0
-366 -26 363 0
-366 364 0
-366 367 0
-366 249 0
-370 296 0
-370 -364 0
-364 28 292 295 362 366 372 373 374 0
-370 -364 0
-375 216 0
-376 216 0
-377 -26 363 0
-377 367 0
-378 -26 363 0
-378 367 0
-379 216 0
-382 26 152 153 0
-382 -150 0
-150 26 152 153 0
-382 -150 0
-372 364 0
-372 367 0
-283 -34 0
-283 32 0
-392 -283 0
-394 -283 0
-284 -283 0
-396 -283 0
-397 -283 0
-283 -266 0
-400 -283 0
-373 364 0
-392 -32 131 0
-392 -34 0
-392 32 0
-392 -283 0
-394 -392 0
-392 -284 0
-396 -392 0
-397 -392 0
-392 -266 0
-400 -392 0
-394 -32 131 0
-394 -34 0
-394 32 0
-394 -283 0
-394 -392 0
-394 -284 0
-396 -394 0
-397 -394 0
-394 -266 0
-400 -394 0
-284 -34 0
-284 32 0
-284 -283 0
-392 -284 0
-394 -284 0
-396 -284 0
-397 -284 0
-400 -284 0
-396 -34 0
-396 32 0
-396 -266 0
-397 -32 0
-397 -150 -34 249 0
-397 34 0
-397 -283 0
-397 -392 0
-397 -394 0
-397 -284 0
-397 -396 0
-397 -266 0
-400 -397 0
-374 364 0
-374 367 0
-136 -134 -32 0
-136 -34 0
-136 32 0
-403 -32 113 0
-403 -34 0
-403 32 0
-405 367 0
-406 -34 0
-406 32 0
-407 33 0
-410 -32 0
-410 -34 262 0
-410 34 0
-415 26 152 153 0
-415 -150 26 152 153 0
-266 26 0
-266 420 0
-266 26 0
-266 420 0
-283 -266 0
-392 -266 0
-394 -266 0
-396 -266 0
-397 -266 0
-427 -266 0
-428 -266 0
-400 -266 0
-266 -181 0
-266 -28 0
-294 -266 0
-429 -266 0
-266 -216 0
-430 -266 0
-431 -32 152 0
-431 -32 432 0
-431 -32 433 0
-431 -32 122 0
-431 -34 0
-431 32 0
-435 152 153 0
-435 171 0
-423 216 0
-427 -32 26 0
-427 -150 -32 0
-427 -34 0
-427 32 0
-427 -266 0
-428 -427 0
-428 26 0
-428 150 0
-428 122 0
-428 -266 0
-428 -427 0
-33 -32 36 40 0
-33 -32 257 0
-33 -32 285 0
-33 -32 323 0
-33 -32 407 0
-158 -33 -32 0
-443 113 0
-443 415 0
-429 -266 0
-444 -429 0
-429 -216 0
-430 -429 0
-444 -429 0
-444 -216 0
-444 -430 0
-400 -32 26 0
-400 -34 0
-400 32 0
-400 -283 0
-400 -392 0
-400 -394 0
-400 -284 0
-400 -396 0
-400 -397 0
-400 -266 0
-266 -216 0
-429 -216 0
-444 -216 0
-367 -216 0
-430 -216 0
-367 -216 0
-430 -266 0
-430 -429 0
-444 -430 0
-430 -216 0
-249 248 291 366 397 0
-449 -448 0
-449 -448 0
26 152 153 0
-474 262 0
-474 171 178 0
-475 262 0
-475 179 0
-363 26 0
-363 28 294 362 366 377 378 476 0
-433 152 153 0
-433 153 432 0
-433 152 512 0
-433 432 512 0
-26 420 0
-152 -26 0
-153 -26 0
-432 152 0
-432 433 0
-512 -432 0
-432 -420 0
-512 153 0
-512 433 0
-512 -432 0
-512 -420 0
-420 26 0
-432 -420 0
-512 -420 0
-152 -32 432 0
-152 -32 433 0
-152 -34 0
-152 32 0
-152 -26 0
-153 -152 0
-153 -32 512 0
-153 -32 433 0
-153 -34 0
-153 32 0
-153 -26 0
-153 -152 0
-28 -26 23 0
-47 31 36 40 0
-48 31 36 40 0
-49 31 36 40 0
-62 31 36 40 0
-63 31 36 40 0
-64 31 36 40 0
-65 31 36 40 0
-66 31 36 40 0
-172 74 75 76 77 78 79 80 0
-601 74 75 76 77 78 79 80 0
-602 74 75 76 77 78 79 80 0
-180 74 75 76 77 78 79 80 0
-171 75 76 77 78 79 80 81 0
-179 75 76 77 78 79 80 81 0
-684 75 76 77 78 79 80 82 0
-683 75 76 77 78 79 80 82 0
-682 75 76 77 78 79 80 82 0
-681 75 76 77 78 79 80 82 0
-680 75 76 77 78 79 80 82 0
-679 75 76 77 78 79 80 82 0
-678 75 76 77 78 79 80 82 0
-677 75 76 77 78 79 80 82 0
-676 75 76 77 78 79 80 82 0
-675 75 76 77 78 79 80 82 0
-674 75 76 77 78 79 80 82 0
-673 75 76 77 78 79 80 82 0
-672 75 76 77 78 79 80 82 0
-671 75 76 77 78 79 80 82 0
-670 75 76 77 78 79 80 82 0
-669 75 76 77 78 79 80 82 0
-668 75 76 77 78 79 80 82 0
-667 75 76 77 78 79 80 82 0
-666 75 76 77 78 79 80 82 0
-665 75 76 77 78 79 80 82 0
-664 75 76 77 78 79 80 82 0
-663 75 76 77 78 79 80 82 0
-662 75 76 77 78 79 80 82 0
-661 75 76 77 78 79 80 82 0
-660 75 76 77 78 79 80 82 0
-659 75 76 77 78 79 80 82 0
-658 75 76 77 78 79 80 82 0
-657 75 76 77 78 79 80 82 0
-656 75 76 77 78 79 80 82 0
-655 75 76 77 78 79 80 82 0
-654 75 76 77 78 79 80 82 0
-653 75 76 77 78 79 80 82 0
-652 75 76 77 78 79 80 82 0
-651 75 76 77 78 79 80 82 0
-650 75 76 77 78 79 80 82 0
-649 75 76 77 78 79 80 82 0
-648 75 76 77 78 79 80 82 0
-647 75 76 77 78 79 80 82 0
-646 75 76 77 78 79 80 82 0
-645 75 76 77 78 79 80 82 0
-644 75 76 77 78 79 80 82 0
-643 75 76 77 78 79 80 82 0
-642 75 76 77 78 79 80 82 0
-641 75 76 77 78 79 80 82 0
-640 75 76 77 78 79 80 82 0
-639 75 76 77 78 79 80 82 0
-638 75 76 77 78 79 80 82 0
-637 75 76 77 78 79 80 82 0
-636 75 76 77 78 79 80 82 0
-635 75 76 77 78 79 80 82 0
-634 75 76 77 78 79 80 82 0
-633 75 76 77 78 79 80 82 0
-632 75 76 77 78 79 80 82 0
-631 75 76 77 78 79 80 82 0
-630 75 76 77 78 79 80 82 0
-629 75 76 77 78 79 80 82 0
-628 75 76 77 78 79 80 82 0
-627 75 76 77 78 79 80 82 0
-626 75 76 77 78 79 80 82 0
-625 75 76 77 78 79 80 82 0
-624 75 76 77 78 79 80 82 0
-623 75 76 77 78 79 80 82 0
-622 75 76 77 78 79 80 82 0
-621 75 76 77 78 79 80 82 0
-620 75 76 77 78 79 80 82 0
-619 75 76 77 78 79 80 82 0
-618 75 76 77 78 79 80 82 0
-617 75 76 77 78 79 80 82 0
-616 75 76 77 78 79 80 82 0
-615 75 76 77 78 79 80 82 0
-614 75 76 77 78 79 80 82 0
-613 75 76 77 78 79 80 82 0
-612 75 76 77 78 79 80 82 0
-611 75 76 77 78 79 80 82 0
-610 75 76 77 78 79 80 82 0
-609 75 76 77 78 79 80 82 0
-608 75 76 77 78 79 80 82 0
-607 75 76 77 78 79 80 82 0
-606 75 76 77 78 79 80 82 0
-605 75 76 77 78 79 80 82 0
-604 75 76 77 78 79 80 82 0
-603 75 76 77 78 79 80 82 0
-276 75 76 77 78 79 80 82 0
-271 75 76 77 78 79 80 82 0
-268 75 76 77 78 79 80 82 0
-267 75 76 77 78 79 80 82 0
-265 75 76 77 78 79 80 82 0
-261 75 76 77 78 79 80 82 0
-259 75 76 77 78 79 80 82 0
-256 75 76 77 78 79 80 82 0
-250 75 76 77 78 79 80 82 0
-245 75 76 77 78 79 80 82 0
-243 75 76 77 78 79 80 82 0
-187 75 76 77 78 79 80 82 0
-185 75 76 77 78 79 80 82 0
-184 75 76 77 78 79 80 82 0
-181 75 76 77 78 79 80 82 0
-124 75 76 77 78 79 80 82 0
-685 75 76 77 78 79 80 83 0
-686 75 76 77 78 79 80 83 0
-244 75 76 77 78 79 80 83 0
-687 75 76 77 78 79 80 83 0
-688 75 76 77 78 79 80 83 0
-248 75 76 77 78 79 80 83 0
-689 75 76 77 78 79 80 83 0
-251 75 76 77 78 79 80 83 0
-690 75 76 77 78 79 80 83 0
-691 75 76 77 78 79 80 83 0
-692 75 76 77 78 79 80 83 0
-693 75 76 77 78 79 80 83 0
-694 75 76 77 78 79 80 83 0
-695 75 76 77 78 79 80 83 0
-696 75 76 77 78 79 80 83 0
-173 75 76 77 78 79 80 84 0
-773 75 76 77 78 79 80 85 0
-772 75 76 77 78 79 80 85 0
-771 75 76 77 78 79 80 85 0
-770 75 76 77 78 79 80 85 0
-769 75 76 77 78 79 80 85 0
-768 75 76 77 78 79 80 85 0
-767 75 76 77 78 79 80 85 0
-766 75 76 77 78 79 80 85 0
-765 75 76 77 78 79 80 85 0
-764 75 76 77 78 79 80 85 0
-763 75 76 77 78 79 80 85 0
-762 75 76 77 78 79 80 85 0
-761 75 76 77 78 79 80 85 0
-760 75 76 77 78 79 80 85 0
-759 75 76 77 78 79 80 85 0
-758 75 76 77 78 79 80 85 0
-757 75 76 77 78 79 80 85 0
-756 75 76 77 78 79 80 85 0
-755 75 76 77 78 79 80 85 0
-754 75 76 77 78 79 80 85 0
-753 75 76 77 78 79 80 85 0
-752 75 76 77 78 79 80 85 0
-751 75 76 77 78 79 80 85 0
-750 75 76 77 78 79 80 85 0
-749 75 76 77 78 79 80 85 0
-748 75 76 77 78 79 80 85 0
-747 75 76 77 78 79 80 85 0
-746 75 76 77 78 79 80 85 0
-745 75 76 77 78 79 80 85 0
-744 75 76 77 78 79 80 85 0
-743 75 76 77 78 79 80 85 0
-742 75 76 77 78 79 80 85 0
-741 75 76 77 78 79 80 85 0
-740 75 76 77 78 79 80 85 0
-739 75 76 77 78 79 80 85 0
-738 75 76 77 78 79 80 85 0
-737 75 76 77 78 79 80 85 0
-736 75 76 77 78 79 80 85 0
-735 75 76 77 78 79 80 85 0
-734 75 76 77 78 79 80 85 0
-733 75 76 77 78 79 80 85 0
-732 75 76 77 78 79 80 85 0
-731 75 76 77 78 79 80 85 0
-730 75 76 77 78 79 80 85 0
-729 75 76 77 78 79 80 85 0
-728 75 76 77 78 79 80 85 0
-727 75 76 77 78 79 80 85 0
-726 75 76 77 78 79 80 85 0
-725 75 76 77 78 79 80 85 0
-724 75 76 77 78 79 80 85 0
-723 75 76 77 78 79 80 85 0
-722 75 76 77 78 79 80 85 0
-721 75 76 77 78 79 80 85 0
-720 75 76 77 78 79 80 85 0
-719 75 76 77 78 79 80 85 0
-718 75 76 77 78 79 80 85 0
-717 75 76 77 78 79 80 85 0
-716 75 76 77 78 79 80 85 0
-715 75 76 77 78 79 80 85 0
-714 75 76 77 78 79 80 85 0
-713 75 76 77 78 79 80 85 0
-712 75 76 77 78 79 80 85 0
-711 75 76 77 78 79 80 85 0
-710 75 76 77 78 79 80 85 0
-709 75 76 77 78 79 80 85 0
-708 75 76 77 78 79 80 85 0
-707 75 76 77 78 79 80 85 0
-706 75 76 77 78 79 80 85 0
-705 75 76 77 78 79 80 85 0
-704 75 76 77 78 79 80 85 0
-703 75 76 77 78 79 80 85 0
-702 75 76 77 78 79 80 85 0
-701 75 76 77 78 79 80 85 0
-700 75 76 77 78 79 80 85 0
-699 75 76 77 78 79 80 85 0
-698 75 76 77 78 79 80 85 0
-697 75 76 77 78 79 80 85 0
-508 75 76 77 78 79 80 85 0
-502 75 76 77 78 79 80 85 0
-501 75 76 77 78 79 80 85 0
-500 75 76 77 78 79 80 85 0
-498 75 76 77 78 79 80 85 0
-497 75 76 77 78 79 80 85 0
-496 75 76 77 78 79 80 85 0
-495 75 76 77 78 79 80 85 0
-494 75 76 77 78 79 80 85 0
-493 75 76 77 78 79 80 85 0
-492 75 76 77 78 79 80 85 0
-491 75 76 77 78 79 80 85 0
-489 75 76 77 78 79 80 85 0
-484 75 76 77 78 79 80 85 0
-481 75 76 77 78 79 80 85 0
-480 75 76 77 78 79 80 85 0
-479 75 76 77 78 79 80 85 0
-478 75 76 77 78 79 80 85 0
-409 75 76 77 78 79 80 85 0
-408 75 76 77 78 79 80 85 0
-405 75 76 77 78 79 80 85 0
-402 75 76 77 78 79 80 85 0
-391 75 76 77 78 79 80 85 0
-374 75 76 77 78 79 80 85 0
-373 75 76 77 78 79 80 85 0
-372 75 76 77 78 79 80 85 0
-361 75 76 77 78 79 80 85 0
-298 75 76 77 78 79 80 85 0
-297 75 76 77 78 79 80 85 0
-296 75 76 77 78 79 80 85 0
-295 75 76 77 78 79 80 85 0
-294 75 76 77 78 79 80 85 0
-293 75 76 77 78 79 80 85 0
-292 75 76 77 78 79 80 85 0
-291 75 76 77 78 79 80 85 0
-273 75 76 77 78 79 80 85 0
-264 75 76 77 78 79 80 85 0
-260 75 76 77 78 79 80 85 0
-255 75 76 77 78 79 80 85 0
-254 75 76 77 78 79 80 85 0
-253 75 76 77 78 79 80 85 0
-215 75 76 77 78 79 80 85 0
-176 75 76 77 78 79 80 85 0
-175 75 76 77 78 79 80 85 0
-123 75 76 77 78 79 80 85 0
-28 75 76 77 78 79 80 85 0
-242 75 76 77 78 79 80 94 0
-177 75 76 77 78 79 80 94 0
-680 75 76 77 78 79 80 94 0
-174 75 76 77 78 79 80 86 0
-178 75 76 77 78 79 80 86 0
-774 75 76 77 78 79 80 86 0
-290 75 76 77 78 79 80 86 0
-775 75 76 77 78 79 80 86 0
-776 75 76 77 78 79 80 86 0
-777 75 76 77 78 79 80 86 0
-778 75 76 77 78 79 80 86 0
-779 75 76 77 78 79 80 86 0
-780 75 76 77 78 79 80 86 0
-781 75 76 77 78 79 80 86 0
-782 75 76 77 78 79 80 86 0
-783 75 76 77 78 79 80 86 0
-784 75 76 77 78 79 80 86 0
-305 75 76 77 78 79 80 86 0
-785 75 76 77 78 79 80 86 0
-786 75 76 77 78 79 80 86 0
-787 75 76 77 78 79 80 86 0
-788 75 76 77 78 79 80 86 0
-789 75 76 77 78 79 80 86 0
-790 75 76 77 78 79 80 86 0
-791 75 76 77 78 79 80 86 0
-792 75 76 77 78 79 80 86 0
-793 75 76 77 78 79 80 86 0
-794 75 76 77 78 79 80 86 0
-795 75 76 77 78 79 80 86 0
-796 75 76 77 78 79 80 86 0
-483 75 76 77 78 79 80 86 0
-375 75 76 77 78 79 80 86 0
-499 75 76 77 78 79 80 86 0
-376 75 76 77 78 79 80 86 0
-379 75 76 77 78 79 80 86 0
-742 75 76 77 78 79 80 86 0
-797 75 76 77 78 79 80 86 0
-745 75 76 77 78 79 80 86 0
-423 75 76 77 78 79 80 86 0
-424 75 76 77 78 79 80 86 0
-252 75 76 77 78 79 80 87 0
-186 75 76 77 78 79 80 87 0
-798 75 76 77 78 79 80 87 0
-300 75 76 77 78 79 80 87 0
-322 75 76 77 78 79 80 87 0
-362 75 76 77 78 79 80 87 0
-482 75 76 77 78 79 80 87 0
-365 75 76 77 78 79 80 87 0
-485 75 76 77 78 79 80 87 0
-486 75 76 77 78 79 80 87 0
-366 75 76 77 78 79 80 87 0
-487 75 76 77 78 79 80 87 0
-488 75 76 77 78 79 80 87 0
-490 75 76 77 78 79 80 87 0
-377 75 76 77 78 79 80 87 0
-503 75 76 77 78 79 80 87 0
-476 75 76 77 78 79 80 87 0
-504 75 76 77 78 79 80 87 0
-505 75 76 77 78 79 80 87 0
-506 75 76 77 78 79 80 87 0
-507 75 76 77 78 79 80 87 0
-509 75 76 77 78 79 80 87 0
-510 75 76 77 78 79 80 87 0
-182 75 76 77 78 79 80 88 0
-269 75 76 77 78 79 80 88 0
-270 75 76 77 78 79 80 88 0
-799 75 76 77 78 79 80 88 0
-800 75 76 77 78 79 80 88 0
-801 75 76 77 78 79 80 88 0
-802 75 76 77 78 79 80 88 0
-803 75 76 77 78 79 80 88 0
-378 75 76 77 78 79 80 88 0
-183 75 76 77 78 79 80 89 0
-698 75 76 77 78 79 80 90 0
-699 75 76 77 78 79 80 90 0
-775 75 76 77 78 79 80 90 0
-707 75 76 77 78 79 80 90 0
-785 75 76 77 78 79 80 90 0
-717 75 76 77 78 79 80 90 0
-793 75 76 77 78 79 80 90 0
-728 75 76 77 78 79 80 90 0
-391 75 76 77 78 79 80 90 0
-730 75 76 77 78 79 80 90 0
-372 75 76 77 78 79 80 90 0
-740 75 76 77 78 79 80 90 0
-741 75 76 77 78 79 80 90 0
-402 75 76 77 78 79 80 90 0
-744 75 76 77 78 79 80 90 0
-747 75 76 77 78 79 80 90 0
-405 75 76 77 78 79 80 90 0
-754 75 76 77 78 79 80 90 0
-408 75 76 77 78 79 80 90 0
-409 75 76 77 78 79 80 90 0
-804 75 76 77 78 79 80 91 0
-805 75 76 77 78 79 80 91 0
-477 75 76 77 78 79 80 91 0
-806 75 76 77 78 79 80 91 0
-807 75 76 77 78 79 80 91 0
-723 75 76 77 78 79 80 91 0
-808 75 76 77 78 79 80 91 0
-809 75 76 77 78 79 80 91 0
-359 75 76 77 78 79 80 91 0
-603 108 0
-124 108 0
-685 108 0
-243 108 0
-686 108 0
-172 108 0
-601 108 0
-602 108 0
-244 108 0
-687 108 0
-688 108 0
-245 108 0
-248 108 0
-250 108 0
-689 108 0
-251 108 0
-690 108 0
-173 108 0
-256 108 0
-680 108 0
-259 108 0
-261 108 0
-682 108 0
-179 108 0
-265 108 0
-180 108 0
-683 108 0
-181 108 0
-268 108 0
-271 108 0
-183 108 0
-184 108 0
-691 108 0
-185 108 0
-684 108 0
-187 108 0
-276 108 0
-692 108 0
-693 108 0
-694 108 0
-695 108 0
-696 108 0
-812 109 0
-811 109 0
-810 109 0
-809 109 0
-808 109 0
-807 109 0
-806 109 0
-805 109 0
-804 109 0
-773 109 0
-771 109 0
-770 109 0
-769 109 0
-768 109 0
-767 109 0
-766 109 0
-765 109 0
-764 109 0
-763 109 0
-762 109 0
-761 109 0
-760 109 0
-759 109 0
-756 109 0
-755 109 0
-754 109 0
-753 109 0
-752 109 0
-751 109 0
-750 109 0
-749 109 0
-748 109 0
-747 109 0
-745 109 0
-744 109 0
-743 109 0
-741 109 0
-740 109 0
-739 109 0
-738 109 0
-737 109 0
-736 109 0
-735 109 0
-734 109 0
-733 109 0
-732 109 0
-731 109 0
-730 109 0
-729 109 0
-728 109 0
-727 109 0
-726 109 0
-725 109 0
-724 109 0
-723 109 0
-722 109 0
-721 109 0
-718 109 0
-717 109 0
-716 109 0
-715 109 0
-714 109 0
-713 109 0
-712 109 0
-711 109 0
-710 109 0
-709 109 0
-708 109 0
-707 109 0
-706 109 0
-705 109 0
-704 109 0
-703 109 0
-702 109 0
-701 109 0
-700 109 0
-699 109 0
-698 109 0
-697 109 0
-508 109 0
-502 109 0
-501 109 0
-500 109 0
-498 109 0
-497 109 0
-496 109 0
-495 109 0
-494 109 0
-493 109 0
-492 109 0
-491 109 0
-489 109 0
-484 109 0
-481 109 0
-480 109 0
-479 109 0
-478 109 0
-477 109 0
-409 109 0
-408 109 0
-405 109 0
-402 109 0
-391 109 0
-374 109 0
-373 109 0
-372 109 0
-361 109 0
-359 109 0
-298 109 0
-297 109 0
-296 109 0
-295 109 0
-294 109 0
-293 109 0
-292 109 0
-291 109 0
-273 109 0
-264 109 0
-260 109 0
-255 109 0
-254 109 0
-253 109 0
-215 109 0
-176 109 0
-175 109 0
-123 109 0
-28 109 0
-242 110 0
-171 110 0
-174 110 0
-177 110 0
-178 110 0
-265 110 0
-774 110 0
-290 110 0
-775 110 0
-776 110 0
-777 110 0
-778 110 0
-779 110 0
-780 110 0
-781 110 0
-782 110 0
-783 110 0
-784 110 0
-305 110 0
-785 110 0
-786 110 0
-787 110 0
-788 110 0
-789 110 0
-790 110 0
-791 110 0
-792 110 0
-793 110 0
-794 110 0
-795 110 0
-796 110 0
-483 110 0
-375 110 0
-499 110 0
-376 110 0
-379 110 0
-742 110 0
-797 110 0
-423 110 0
-424 110 0
-252 111 0
-182 111 0
-269 111 0
-270 111 0
-186 111 0
-799 111 0
-800 111 0
-801 111 0
-798 111 0
-802 111 0
-300 111 0
-322 111 0
-803 111 0
-362 111 0
-482 111 0
-365 111 0
-485 111 0
-486 111 0
-366 111 0
-487 111 0
-488 111 0
-490 111 0
-377 111 0
-503 111 0
-378 111 0
-476 111 0
-504 111 0
-505 111 0
-506 111 0
-507 111 0
-509 111 0
-510 111 0
-813 120 0
-737 120 0
-696 120 0
-695 120 0
-694 120 0
-693 120 0
-692 120 0
-691 120 0
-690 120 0
-689 120 0
-687 120 0
-686 120 0
-685 120 0
-684 120 0
-683 120 0
-682 120 0
-681 120 0
-680 120 0
-678 120 0
-677 120 0
-676 120 0
-675 120 0
-674 120 0
-673 120 0
-672 120 0
-671 120 0
-670 120 0
-669 120 0
-668 120 0
-667 120 0
-666 120 0
-665 120 0
-664 120 0
-663 120 0
-662 120 0
-661 120 0
-660 120 0
-659 120 0
-658 120 0
-657 120 0
-656 120 0
-655 120 0
-654 120 0
-653 120 0
-652 120 0
-651 120 0
-650 120 0
-649 120 0
-648 120 0
-647 120 0
-646 120 0
-645 120 0
-644 120 0
-643 120 0
-642 120 0
-641 120 0
-640 120 0
-639 120 0
-638 120 0
-637 120 0
-636 120 0
-635 120 0
-634 120 0
-633 120 0
-632 120 0
-631 120 0
-630 120 0
-629 120 0
-628 120 0
-627 120 0
-626 120 0
-625 120 0
-624 120 0
-623 120 0
-622 120 0
-621 120 0
-620 120 0
-619 120 0
-618 120 0
-617 120 0
-616 120 0
-615 120 0
-614 120 0
-613 120 0
-612 120 0
-611 120 0
-610 120 0
-609 120 0
-608 120 0
-607 120 0
-606 120 0
-605 120 0
-604 120 0
-603 120 0
-602 120 0
-601 120 0
-276 120 0
-273 120 0
-271 120 0
-270 120 0
-269 120 0
-268 120 0
-265 120 0
-264 120 0
-261 120 0
-260 120 0
-259 120 0
-255 120 0
-254 120 0
-253 120 0
-252 120 0
-251 120 0
-250 120 0
-248 120 0
-245 120 0
-244 120 0
-243 120 0
-242 120 0
-187 120 0
-186 120 0
-185 120 0
-184 120 0
-183 120 0
-182 120 0
-181 120 0
-180 120 0
-179 120 0
-178 120 0
-177 120 0
-174 120 0
-173 120 0
-172 120 0
-171 120 0
-359 126 0
-361 126 0
-479 126 0
-480 126 0
-362 126 0
-481 126 0
-482 126 0
-365 126 0
-483 126 0
-484 126 0
-485 126 0
-486 126 0
-366 126 0
-487 126 0
-488 126 0
-489 126 0
-490 126 0
-491 126 0
-724 126 0
-492 126 0
-493 126 0
-494 126 0
-725 126 0
-726 126 0
-495 126 0
-496 126 0
-497 126 0
-498 126 0
-375 126 0
-499 126 0
-376 126 0
-500 126 0
-501 126 0
-377 126 0
-503 126 0
-378 126 0
-476 126 0
-504 126 0
-727 126 0
-379 126 0
-505 126 0
-506 126 0
-507 126 0
-508 126 0
-509 126 0
-510 126 0
-729 127 0
-372 127 0
-731 127 0
-732 127 0
-733 127 0
-734 127 0
-28 127 0
-736 127 0
-292 127 0
-373 127 0
-738 127 0
-739 127 0
-374 127 0
-742 127 0
-294 127 0
-797 127 0
-295 127 0
-746 127 0
-748 127 0
-749 127 0
-750 127 0
-751 127 0
-752 127 0
-296 127 0
-297 127 0
-755 127 0
-728 128 0
-391 128 0
-730 128 0
-740 128 0
-293 128 0
-741 128 0
-402 128 0
-744 128 0
-745 128 0
-747 128 0
-405 128 0
-754 128 0
-408 128 0
-409 128 0
-756 128 0
-698 129 0
-699 129 0
-774 129 0
-290 129 0
-700 129 0
-701 129 0
-775 129 0
-799 129 0
-702 129 0
-703 129 0
-776 129 0
-800 129 0
-777 129 0
-801 129 0
-798 129 0
-802 129 0
-778 129 0
-779 129 0
-707 129 0
-814 129 0
-704 129 0
-705 129 0
-780 129 0
-781 129 0
-706 129 0
-782 129 0
-783 129 0
-784 129 0
-305 129 0
-753 130 0
-812 130 0
-758 130 0
-759 130 0
-760 130 0
-761 130 0
-298 130 0
-762 130 0
-763 130 0
-764 130 0
-423 130 0
-424 130 0
-765 130 0
-766 130 0
-767 130 0
-768 130 0
-769 130 0
-770 130 0
-771 130 0
-772 130 0
-773 130 0
-392 131 0
-394 131 0
-245 131 0
-255 131 0
-175 133 0
-176 133 0
-804 133 0
-805 133 0
-477 133 0
-806 133 0
-807 133 0
-723 133 0
-808 133 0
-809 133 0
-478 133 0
-735 133 0
-811 133 0
-743 133 0
-134 -32 135 0
-815 122 0
-813 122 0
-678 122 0
-677 122 0
-676 122 0
-675 122 0
-674 122 0
-673 122 0
-672 122 0
-671 122 0
-670 122 0
-669 122 0
-668 122 0
-667 122 0
-666 122 0
-665 122 0
-664 122 0
-663 122 0
-662 122 0
-661 122 0
-660 122 0
-659 122 0
-658 122 0
-657 122 0
-656 122 0
-655 122 0
-654 122 0
-653 122 0
-652 122 0
-651 122 0
-650 122 0
-649 122 0
-648 122 0
-647 122 0
-646 122 0
-645 122 0
-644 122 0
-643 122 0
-642 122 0
-641 122 0
-640 122 0
-639 122 0
-638 122 0
-637 122 0
-636 122 0
-635 122 0
-634 122 0
-633 122 0
-632 122 0
-631 122 0
-630 122 0
-629 122 0
-628 122 0
-627 122 0
-626 122 0
-625 122 0
-624 122 0
-623 122 0
-622 122 0
-621 122 0
-620 122 0
-619 122 0
-618 122 0
-617 122 0
-616 122 0
-615 122 0
-614 122 0
-613 122 0
-612 122 0
-611 122 0
-610 122 0
-609 122 0
-608 122 0
-607 122 0
-606 122 0
-605 122 0
-604 122 0
-603 122 0
-32 33 158 0
-227 31 36 40 0
-228 31 36 40 0
-229 31 36 40 0
-230 31 36 40 0
-33 -32 257 0
-34 257 0
-410 262 0
-827 280 0
-826 280 0
-825 280 0
-824 280 0
-823 280 0
-822 280 0
-821 280 0
-820 280 0
-819 280 0
-818 280 0
-817 280 0
-691 280 0
-690 280 0
-689 280 0
-687 280 0
-686 280 0
-682 280 0
-681 280 0
-680 280 0
-602 280 0
-601 280 0
-276 280 0
-273 280 0
-271 280 0
-270 280 0
-269 280 0
-268 280 0
-267 280 0
-265 280 0
-264 280 0
-261 280 0
-260 280 0
-259 280 0
-255 280 0
-254 280 0
-253 280 0
-252 280 0
-251 280 0
-250 280 0
-248 280 0
-245 280 0
-244 280 0
-243 280 0
-242 280 0
-187 280 0
-186 280 0
-185 280 0
-184 280 0
-183 280 0
-182 280 0
-181 280 0
-180 280 0
-179 280 0
-178 280 0
-177 280 0
-176 280 0
-175 280 0
-174 280 0
-173 280 0
-172 280 0
-171 280 0
-286 281 0
-33 -32 285 0
-34 285 0
-33 -32 323 0
-34 323 0
-112 113 0
-403 113 0
-365 179 354 0
-837 358 0
-836 358 0
-835 358 0
-834 358 0
-833 358 0
-832 358 0
-831 358 0
-830 358 0
-829 358 0
-814 358 0
-810 358 0
-803 358 0
-802 358 0
-801 358 0
-800 358 0
-799 358 0
-798 358 0
-796 358 0
-795 358 0
-794 358 0
-793 358 0
-792 358 0
-791 358 0
-790 358 0
-789 358 0
-788 358 0
-787 358 0
-786 358 0
-785 358 0
-784 358 0
-783 358 0
-782 358 0
-781 358 0
-780 358 0
-779 358 0
-778 358 0
-777 358 0
-776 358 0
-775 358 0
-774 358 0
-722 358 0
-721 358 0
-720 358 0
-719 358 0
-718 358 0
-717 358 0
-716 358 0
-715 358 0
-714 358 0
-713 358 0
-712 358 0
-711 358 0
-710 358 0
-709 358 0
-708 358 0
-707 358 0
-706 358 0
-705 358 0
-704 358 0
-703 358 0
-702 358 0
-701 358 0
-700 358 0
-699 358 0
-698 358 0
-322 358 0
-305 358 0
-300 358 0
-291 358 0
-290 358 0
-296 364 370 0
-362 364 370 0
-366 364 370 0
-372 364 370 0
-28 364 370 0
-292 364 370 0
-373 364 370 0
-374 364 370 0
-295 364 370 0
-845 381 0
-844 381 0
-843 381 0
-842 381 0
-841 381 0
-840 381 0
-839 381 0
-838 381 0
-809 381 0
-808 381 0
-807 381 0
-806 381 0
-805 381 0
-804 381 0
-727 381 0
-726 381 0
-725 381 0
-724 381 0
-723 381 0
-511 381 0
-510 381 0
-509 381 0
-508 381 0
-507 381 0
-506 381 0
-505 381 0
-504 381 0
-503 381 0
-502 381 0
-501 381 0
-500 381 0
-499 381 0
-498 381 0
-497 381 0
-496 381 0
-495 381 0
-494 381 0
-493 381 0
-492 381 0
-491 381 0
-490 381 0
-489 381 0
-488 381 0
-487 381 0
-486 381 0
-485 381 0
-484 381 0
-483 381 0
-482 381 0
-481 381 0
-480 381 0
-479 381 0
-478 381 0
-477 381 0
-476 381 0
-379 381 0
-378 381 0
-377 381 0
-376 381 0
-375 381 0
-366 381 0
-365 381 0
-362 381 0
-361 381 0
-359 381 0
-32 406 0
-33 407 0
-861 413 0
-860 413 0
-859 413 0
-858 413 0
-857 413 0
-856 413 0
-855 413 0
-854 413 0
-853 413 0
-852 413 0
-851 413 0
-850 413 0
-849 413 0
-848 413 0
-847 413 0
-846 413 0
-811 413 0
-797 413 0
-757 413 0
-756 413 0
-755 413 0
-754 413 0
-753 413 0
-752 413 0
-751 413 0
-750 413 0
-749 413 0
-748 413 0
-747 413 0
-746 413 0
-745 413 0
-744 413 0
-743 413 0
-742 413 0
-741 413 0
-740 413 0
-739 413 0
-738 413 0
-737 413 0
-736 413 0
-735 413 0
-734 413 0
-733 413 0
-732 413 0
-731 413 0
-730 413 0
-729 413 0
-728 413 0
-696 413 0
-695 413 0
-694 413 0
-693 413 0
-692 413 0
-409 413 0
-408 413 0
-405 413 0
-402 413 0
-391 413 0
-374 413 0
-373 413 0
-372 413 0
-297 413 0
-296 413 0
-295 413 0
-294 413 0
-293 413 0
-292 413 0
-28 413 0
-443 -26 415 0
-152 415 0
-153 415 0
-32 -26 150 266 427 428 0
-150 -122 -26 266 427 428 0
-407 -323 -285 -257 -36 -32 33 158 0
-407 -323 -285 -257 -40 -32 33 158 0
-34 33 0
-215 216 266 367 429 430 444 0
-171 216 266 367 429 430 444 0
-172 216 266 367 429 430 444 0
-245 216 266 367 429 430 444 0
-173 216 266 367 429 430 444 0
-174 216 266 367 429 430 444 0
-252 216 266 367 429 430 444 0
-253 216 266 367 429 430 444 0
-175 216 266 367 429 430 444 0
-176 216 266 367 429 430 444 0
-254 216 266 367 429 430 444 0
-255 216 266 367 429 430 444 0
-177 216 266 367 429 430 444 0
-259 216 266 367 429 430 444 0
-178 216 266 367 429 430 444 0
-264 216 266 367 429 430 444 0
-179 216 266 367 429 430 444 0
-180 216 266 367 429 430 444 0
-181 216 266 367 429 430 444 0
-182 216 266 367 429 430 444 0
-269 216 266 367 429 430 444 0
-270 216 266 367 429 430 444 0
-271 216 266 367 429 430 444 0
-183 216 266 367 429 430 444 0
-184 216 266 367 429 430 444 0
-185 216 266 367 429 430 444 0
-186 216 266 367 429 430 444 0
-300 216 266 367 429 430 444 0
-305 216 266 367 429 430 444 0
-322 216 266 367 429 430 444 0
-122 216 266 367 429 430 444 0
-359 216 266 367 429 430 444 0
-361 216 266 367 429 430 444 0
-375 216 266 367 429 430 444 0
-376 216 266 367 429 430 444 0
-379 216 266 367 429 430 444 0
-423 216 266 367 429 430 444 0
-366 216 367 0
-377 216 367 0
-378 216 367 0
-372 216 367 0
-294 216 367 0
-374 216 367 0
-405 216 367 0
-248 150 249 0
-291 150 249 0
-366 150 249 0
-248 -150 249 0
-291 -150 249 0
-366 -150 249 0
-397 -150 249 0
-812 453 0
-758 453 0
-862 453 0
-759 453 0
-760 453 0
-761 453 0
-298 453 0
-762 453 0
-763 453 0
-764 453 0
-423 453 0
-424 453 0
-765 453 0
-766 453 0
-767 453 0
-768 453 0
-769 453 0
-770 453 0
-771 453 0
-772 453 0
-773 453 0
-863 453 0
-864 453 0
-865 453 0
-262 -171 474 0
-262 -179 475 0
-362 -26 363 0
-366 -26 363 0
-377 -26 363 0
-378 -26 363 0
-476 -26 363 0
-28 -26 363 0
-294 -26 363 0
32 34 0
-34 -32 0
26 152 153 0
152 153 420 0
26 152 153 0
152 153 420 0
26 152 512 0
152 420 512 0
26 152 512 0
152 420 512 0
26 152 153 0
152 153 420 0
26 152 153 0
152 153 420 0
26 152 512 0
152 420 512 0
26 152 512 0
152 420 512 0
26 153 432 0
153 420 432 0
26 153 432 0
153 420 432 0
26 432 512 0
420 432 512 0
26 432 512 0
420 432 512 0
26 153 432 0
153 420 432 0
26 153 432 0
153 420 432 0
26 432 512 0
420 432 512 0
26 432 512 0
420 432 512 0
26 433 0
420 433 0
26 433 0
420 433 0
